%BLOCK LATTICE_CART
  3.25 0.0 0.0
  0.0 3.25 0.0
  0.0 0.0 5.21
%ENDBLOCK LATTICE_CART

%BLOCK POSITIONS_FRAC
Zn  0.333333  0.666667  0.0
Zn  0.666667  0.333333  0.5
O   0.333333  0.666667  0.375
O   0.666667  0.333333  0.875
%ENDBLOCK POSITIONS_FRAC

